32	0

0	3	2	3	4
4	2	5	6
9	3	7	8	9
6	2	5	6
4	3	9	10	12
1	3	7	8	9
8	2	11	12
2	2	10	12
10	1	11
9	1	11
3	4	13	14	15	16
6	4	13	14	15	16
8	2	17	20
8	2	17	20
7	3	17	19	20
2	4	17	19	20	21
1	2	18	22
3	2	23	24
7	1	23
9	2	25	27
9	1	22
1	2	23	24
1	3	25	27	28
6	1	25
2	2	26	29
6	1	30
4	2	29	30
9	2	29	30
4	1	31
3	1	31
7	1	32
0	0
